# Solution for model obj
# Objective value = 156
x0_0 0
x0_1 0
x0_2 0
x0_3 0
x0_4 0
x0_5 0
x0_6 0
x0_7 0
x0_8 1
x1_0 0
x1_1 0
x1_2 0
x1_3 0
x1_4 0
x1_5 1
x1_6 0
x1_7 0
x1_8 0
x2_0 0
x2_1 0
x2_2 0
x2_3 0
x2_4 0
x2_5 0
x2_6 0
x2_7 0
x2_8 1
x3_0 0
x3_1 0
x3_2 0
x3_3 0
x3_4 0
x3_5 0
x3_6 1
x3_7 0
x3_8 0
x4_0 0
x4_1 1
x4_2 0
x4_3 0
x4_4 0
x4_5 0
x4_6 0
x4_7 0
x4_8 0
x5_0 1
x5_1 0
x5_2 0
x5_3 0
x5_4 0
x5_5 0
x5_6 0
x5_7 0
x5_8 0
x6_0 0
x6_1 0
x6_2 0
x6_3 0
x6_4 0
x6_5 0
x6_6 0
x6_7 1
x6_8 0
x7_0 1
x7_1 0
x7_2 0
x7_3 0
x7_4 0
x7_5 0
x7_6 0
x7_7 0
x7_8 0
x8_0 0
x8_1 0
x8_2 0
x8_3 1
x8_4 0
x8_5 0
x8_6 0
x8_7 0
x8_8 0
x9_0 0
x9_1 0
x9_2 1
x9_3 0
x9_4 0
x9_5 0
x9_6 0
x9_7 0
x9_8 0
x10_0 0
x10_1 0
x10_2 0
x10_3 0
x10_4 1
x10_5 0
x10_6 0
x10_7 0
x10_8 0
